rcpsp/heur_output_bi_constraints/Log=5/heurj120.txt
encoding rcpsp/j120.sm/j12013_7.sm nv: 4796720 nc: 9844111 enctime: 89.32
encoding rcpsp/j120.sm/j12013_7.sm nv: 888804 nc: 1819975 enctime: 11.43
c File: j12013_7.smnaivebi5.wcnf
c timeout
c final solution cost: 112
c CPU time: 71.482417
s UNKNOWN

c File: j12013_7.smbi5.wcnf
c timeout
c final solution cost: 113
c CPU time: 61.362913
s UNKNOWN


rcpsp/heur_output_bi_constraints/Log=5/heurj120.txt
encoding rcpsp/j120.sm/j12013_8.sm nv: 5379717 nc: 11003118 enctime: 95.35
encoding rcpsp/j120.sm/j12013_8.sm nv: 879453 nc: 1794702 enctime: 11.22
c File: j12013_8.smnaivebi5.wcnf
c timeout
c final solution cost: 98
c CPU time: 72.578445
s UNKNOWN

c File: j12013_8.smbi5.wcnf
c timeout
c final solution cost: 97
c CPU time: 61.331738
s UNKNOWN


rcpsp/heur_output_bi_constraints/Log=5/heurj120.txt
encoding rcpsp/j120.sm/j12013_9.sm nv: 5127290 nc: 10439077 enctime: 86.68
encoding rcpsp/j120.sm/j12013_9.sm nv: 790080 nc: 1604976 enctime: 10.03
c File: j12013_9.smnaivebi5.wcnf
c timeout
c final solution cost: 85
c CPU time: 71.112399
s UNKNOWN

c File: j12013_9.smbi5.wcnf
c timeout
c final solution cost: 85
c CPU time: 61.211923
s UNKNOWN


rcpsp/heur_output_bi_constraints/Log=5/heurj120.txt
encoding rcpsp/j120.sm/j1201_3.sm nv: 647400 nc: 1580113 enctime: 28.55
encoding rcpsp/j120.sm/j1201_3.sm nv: 151125 nc: 365130 enctime: 2.96
c File: j1201_3.smnaivebi5.wcnf
c timeout
c final solution cost: 125
c CPU time: 65.677193
s UNKNOWN

c File: j1201_3.smbi5.wcnf
c timeout
c final solution cost: 128
c CPU time: 60.455568
s UNKNOWN


rcpsp/heur_output_bi_constraints/Log=5/heurj120.txt
encoding rcpsp/j120.sm/j12014_10.sm nv: 5935808 nc: 12070542 enctime: 101.81
encoding rcpsp/j120.sm/j12014_10.sm nv: 928608 nc: 1884542 enctime: 12.22
c File: j12014_10.smnaivebi5.wcnf
c timeout
c final solution cost: 74
c CPU time: 72.669356
s UNKNOWN

c File: j12014_10.smbi5.wcnf
c timeout
c final solution cost: 75
c CPU time: 61.384173
s UNKNOWN


rcpsp/heur_output_bi_constraints/Log=5/heurj120.txt
encoding rcpsp/j120.sm/j12014_1.sm nv: 7133508 nc: 14518707 enctime: 123.61
encoding rcpsp/j120.sm/j12014_1.sm nv: 936522 nc: 1901437 enctime: 12.74
c File: j12014_1.smnaivebi5.wcnf
c timeout
c final solution cost: 86
c CPU time: 75.111963
s UNKNOWN

c File: j12014_1.smbi5.wcnf
c timeout
c final solution cost: 83
c CPU time: 61.410107
s UNKNOWN


rcpsp/heur_output_bi_constraints/Log=5/heurj120.txt
encoding rcpsp/j120.sm/j12014_2.sm nv: 6866283 nc: 14009998 enctime: 122.20
encoding rcpsp/j120.sm/j12014_2.sm nv: 958086 nc: 1950181 enctime: 13.08
c File: j12014_2.smnaivebi5.wcnf
c timeout
c final solution cost: 591
c CPU time: 75.044980
s UNKNOWN

c File: j12014_2.smbi5.wcnf
c timeout
c final solution cost: 88
c CPU time: 61.463048
s UNKNOWN


rcpsp/heur_output_bi_constraints/Log=5/heurj120.txt
encoding rcpsp/j120.sm/j12014_3.sm nv: 5770692 nc: 11717322 enctime: 99.25
encoding rcpsp/j120.sm/j12014_3.sm nv: 854577 nc: 1731547 enctime: 11.39
c File: j12014_3.smnaivebi5.wcnf
c timeout
c final solution cost: 75
c CPU time: 72.344240
s UNKNOWN

c File: j12014_3.smbi5.wcnf
c timeout
c final solution cost: 75
c CPU time: 61.251578
s UNKNOWN


rcpsp/heur_output_bi_constraints/Log=5/heurj120.txt
encoding rcpsp/j120.sm/j12014_4.sm nv: 5547202 nc: 11297357 enctime: 97.70
encoding rcpsp/j120.sm/j12014_4.sm nv: 901635 nc: 1832562 enctime: 11.95
c File: j12014_4.smnaivebi5.wcnf
c timeout
c final solution cost: 86
c CPU time: 72.087328
s UNKNOWN

c File: j12014_4.smbi5.wcnf
c timeout
c final solution cost: 86
c CPU time: 61.357070
s UNKNOWN


rcpsp/heur_output_bi_constraints/Log=5/heurj120.txt
encoding rcpsp/j120.sm/j12014_5.sm nv: 4514376 nc: 9234184 enctime: 83.23
encoding rcpsp/j120.sm/j12014_5.sm nv: 792873 nc: 1618206 enctime: 10.38
c File: j12014_5.smnaivebi5.wcnf
c timeout
c final solution cost: 123
c CPU time: 70.684608
s UNKNOWN

c File: j12014_5.smbi5.wcnf
c timeout
c final solution cost: 94
c CPU time: 61.238729
s UNKNOWN


rcpsp/heur_output_bi_constraints/Log=5/heurj120.txt
encoding rcpsp/j120.sm/j12014_6.sm nv: 5811047 nc: 11821926 enctime: 100.23
encoding rcpsp/j120.sm/j12014_6.sm nv: 916597 nc: 1860876 enctime: 12.00
c File: j12014_6.smnaivebi5.wcnf
c timeout
c final solution cost: 85
c CPU time: 72.600635
s UNKNOWN

c File: j12014_6.smbi5.wcnf
c timeout
c final solution cost: 85
c CPU time: 61.386001
s UNKNOWN


rcpsp/heur_output_bi_constraints/Log=5/heurj120.txt
encoding rcpsp/j120.sm/j12014_7.sm nv: 6483386 nc: 13195802 enctime: 114.91
encoding rcpsp/j120.sm/j12014_7.sm nv: 935649 nc: 1900161 enctime: 9.81
c File: j12014_7.smnaivebi5.wcnf
c optimal
c final solution cost: 89
c CPU time: 59.416396
s OPTIMUM FOUND

c File: j12014_7.smbi5.wcnf
c optimal
c final solution cost: 89
c CPU time: 30.555483
s OPTIMUM FOUND


rcpsp/heur_output_bi_constraints/Log=5/heurj120.txt
encoding rcpsp/j120.sm/j12014_8.sm nv: 5247648 nc: 10746095 enctime: 96.98
encoding rcpsp/j120.sm/j12014_8.sm nv: 920640 nc: 1881143 enctime: 12.11
c File: j12014_8.smnaivebi5.wcnf
c timeout
c final solution cost: 613
c CPU time: 72.508092
s UNKNOWN

c File: j12014_8.smbi5.wcnf
c timeout
c final solution cost: 107
c CPU time: 61.470112
s UNKNOWN


rcpsp/heur_output_bi_constraints/Log=5/heurj120.txt
encoding rcpsp/j120.sm/j12014_9.sm nv: 5383985 nc: 10980190 enctime: 98.60
encoding rcpsp/j120.sm/j12014_9.sm nv: 849235 nc: 1728090 enctime: 11.47
c File: j12014_9.smnaivebi5.wcnf
c timeout
c CPU time: 71.090628
s UNKNOWN

c File: j12014_9.smbi5.wcnf
c timeout
c final solution cost: 90
c CPU time: 61.312702
s UNKNOWN


rcpsp/heur_output_bi_constraints/Log=5/heurj120.txt
encoding rcpsp/j120.sm/j1201_4.sm nv: 580450 nc: 1395708 enctime: 24.78
encoding rcpsp/j120.sm/j1201_4.sm nv: 117800 nc: 279991 enctime: 2.25
c File: j1201_4.smnaivebi5.wcnf
c timeout
c final solution cost: 90
c CPU time: 64.723574
s UNKNOWN

c File: j1201_4.smbi5.wcnf
c optimal
c final solution cost: 88
c CPU time: 25.501844
s OPTIMUM FOUND


rcpsp/heur_output_bi_constraints/Log=5/heurj120.txt
encoding rcpsp/j120.sm/j12015_10.sm nv: 7647274 nc: 15527055 enctime: 132.99
encoding rcpsp/j120.sm/j12015_10.sm nv: 1035456 nc: 2098064 enctime: 10.89
c File: j12015_10.smnaivebi5.wcnf
c optimal
c final solution cost: 83
c CPU time: 25.618425
s OPTIMUM FOUND

c File: j12015_10.smbi5.wcnf
c optimal
c final solution cost: 83
c CPU time: 3.314385
s OPTIMUM FOUND


rcpsp/heur_output_bi_constraints/Log=5/heurj120.txt
encoding rcpsp/j120.sm/j12015_1.sm nv: 7749709 nc: 15662928 enctime: 127.10
encoding rcpsp/j120.sm/j12015_1.sm nv: 1038867 nc: 2095686 enctime: 14.16
c File: j12015_1.smnaivebi5.wcnf
c optimal
c final solution cost: 80
c CPU time: 23.875328
s OPTIMUM FOUND

c File: j12015_1.smbi5.wcnf
c optimal
c final solution cost: 80
c CPU time: 2.892393
s OPTIMUM FOUND


rcpsp/heur_output_bi_constraints/Log=5/heurj120.txt
encoding rcpsp/j120.sm/j12015_2.sm nv: 8718840 nc: 17630838 enctime: 146.38
encoding rcpsp/j120.sm/j12015_2.sm nv: 947700 nc: 1912053 enctime: 10.04
c File: j12015_2.smnaivebi5.wcnf
c optimal
c final solution cost: 70
c CPU time: 29.159672
s OPTIMUM FOUND

c File: j12015_2.smbi5.wcnf
c optimal
c final solution cost: 70
c CPU time: 3.303231
s OPTIMUM FOUND


rcpsp/heur_output_bi_constraints/Log=5/heurj120.txt
encoding rcpsp/j120.sm/j12015_3.sm nv: 6201000 nc: 12596920 enctime: 107.00
encoding rcpsp/j120.sm/j12015_3.sm nv: 868140 nc: 1759587 enctime: 11.66
c File: j12015_3.smnaivebi5.wcnf
c timeout
c final solution cost: 76
c CPU time: 73.013236
s UNKNOWN

c File: j12015_3.smbi5.wcnf
c timeout
c final solution cost: 77
c CPU time: 61.277947
s UNKNOWN


rcpsp/heur_output_bi_constraints/Log=5/heurj120.txt
encoding rcpsp/j120.sm/j12015_4.sm nv: 8164860 nc: 16533035 enctime: 137.32
encoding rcpsp/j120.sm/j12015_4.sm nv: 1057320 nc: 2136455 enctime: 14.41
c File: j12015_4.smnaivebi5.wcnf
c optimal
c final solution cost: 80
c CPU time: 24.540404
s OPTIMUM FOUND

c File: j12015_4.smbi5.wcnf
c optimal
c final solution cost: 80
c CPU time: 2.913657
s OPTIMUM FOUND


rcpsp/heur_output_bi_constraints/Log=5/heurj120.txt
encoding rcpsp/j120.sm/j12015_5.sm nv: 8275925 nc: 16715606 enctime: 129.05
encoding rcpsp/j120.sm/j12015_5.sm nv: 947625 nc: 1909946 enctime: 12.68
c File: j12015_5.smnaivebi5.wcnf
c timeout
c final solution cost: 60
c CPU time: 75.461072
s UNKNOWN

c File: j12015_5.smbi5.wcnf
c timeout
c final solution cost: 60
c CPU time: 61.307045
s UNKNOWN


rcpsp/heur_output_bi_constraints/Log=5/heurj120.txt
encoding rcpsp/j120.sm/j12015_6.sm nv: 7124378 nc: 14451823 enctime: 115.39
encoding rcpsp/j120.sm/j12015_6.sm nv: 963326 nc: 1949881 enctime: 12.47
c File: j12015_6.smnaivebi5.wcnf
c optimal
c final solution cost: 74
c CPU time: 55.883855
s OPTIMUM FOUND

c File: j12015_6.smbi5.wcnf
c optimal
c final solution cost: 74
c CPU time: 12.749290
s OPTIMUM FOUND


rcpsp/heur_output_bi_constraints/Log=5/heurj120.txt
encoding rcpsp/j120.sm/j12015_7.sm nv: 6826314 nc: 13766045 enctime: 100.83
encoding rcpsp/j120.sm/j12015_7.sm nv: 780483 nc: 1570583 enctime: 9.98
c File: j12015_7.smnaivebi5.wcnf
c optimal
c final solution cost: 60
c CPU time: 34.600187
s OPTIMUM FOUND

c File: j12015_7.smbi5.wcnf
c optimal
c final solution cost: 60
c CPU time: 6.729023
s OPTIMUM FOUND


rcpsp/heur_output_bi_constraints/Log=5/heurj120.txt
encoding rcpsp/j120.sm/j12015_8.sm nv: 7356600 nc: 14903276 enctime: 116.03
encoding rcpsp/j120.sm/j12015_8.sm nv: 1438380 nc: 2909987 enctime: 17.05
c File: j12015_8.smnaivebi5.wcnf
c optimal
c final solution cost: 126
c CPU time: 19.802544
s OPTIMUM FOUND

c File: j12015_8.smbi5.wcnf
c optimal
c final solution cost: 126
c CPU time: 3.619491
s OPTIMUM FOUND


rcpsp/heur_output_bi_constraints/Log=5/heurj120.txt
encoding rcpsp/j120.sm/j12015_9.sm nv: 7539956 nc: 15306911 enctime: 122.68
encoding rcpsp/j120.sm/j12015_9.sm nv: 1193916 nc: 2419541 enctime: 11.73
c File: j12015_9.smnaivebi5.wcnf
c optimal
c final solution cost: 102
c CPU time: 24.298899
s OPTIMUM FOUND

c File: j12015_9.smbi5.wcnf
c optimal
c final solution cost: 102
c CPU time: 2.977881
s OPTIMUM FOUND


rcpsp/heur_output_bi_constraints/Log=5/heurj120.txt
encoding rcpsp/j120.sm/j1201_5.sm nv: 641246 nc: 1557354 enctime: 26.37
encoding rcpsp/j120.sm/j1201_5.sm nv: 143372 nc: 344610 enctime: 2.58
c File: j1201_5.smnaivebi5.wcnf
c timeout
c final solution cost: 94
c CPU time: 65.795396
s UNKNOWN

c File: j1201_5.smbi5.wcnf
c optimal
c final solution cost: 94
c CPU time: 6.328999
s OPTIMUM FOUND


rcpsp/heur_output_bi_constraints/Log=5/heurj120.txt
encoding rcpsp/j120.sm/j12016_10.sm nv: 4460319 nc: 9223143 enctime: 81.45
encoding rcpsp/j120.sm/j12016_10.sm nv: 1582488 nc: 3269041 enctime: 20.77
c File: j12016_10.smnaivebi5.wcnf
c timeout
c final solution cost: 319
c CPU time: 71.499244
s UNKNOWN

c File: j12016_10.smbi5.wcnf
c timeout
c CPU time: 62.433038
s UNKNOWN


rcpsp/heur_output_bi_constraints/Log=5/heurj120.txt
encoding rcpsp/j120.sm/j12016_1.sm nv: 4126566 nc: 8498986 enctime: 73.73
encoding rcpsp/j120.sm/j12016_1.sm nv: 1543476 nc: 3176071 enctime: 20.08
c File: j12016_1.smnaivebi5.wcnf
c timeout
c final solution cost: 256
c CPU time: 70.535304
s UNKNOWN

c File: j12016_1.smbi5.wcnf
c timeout
c final solution cost: 227
c CPU time: 62.824565
s UNKNOWN


rcpsp/heur_output_bi_constraints/Log=5/heurj120.txt
encoding rcpsp/j120.sm/j12016_2.sm nv: 4085928 nc: 8468932 enctime: 76.87
encoding rcpsp/j120.sm/j12016_2.sm nv: 1827760 nc: 3785608 enctime: 24.36
c File: j12016_2.smnaivebi5.wcnf
c timeout
c final solution cost: 297
c CPU time: 70.836643
s UNKNOWN

c File: j12016_2.smbi5.wcnf
c timeout
c final solution cost: 260
c CPU time: 63.514812
s UNKNOWN


rcpsp/heur_output_bi_constraints/Log=5/heurj120.txt
encoding rcpsp/j120.sm/j12016_3.sm nv: 4258980 nc: 8841780 enctime: 80.50
encoding rcpsp/j120.sm/j12016_3.sm nv: 1764180 nc: 3659400 enctime: 23.38
c File: j12016_3.smnaivebi5.wcnf
c timeout
c final solution cost: 286
c CPU time: 71.754281
s UNKNOWN

c File: j12016_3.smbi5.wcnf
c timeout
c CPU time: 62.906595
s UNKNOWN


rcpsp/heur_output_bi_constraints/Log=5/heurj120.txt
encoding rcpsp/j120.sm/j12016_4.sm nv: 4265730 nc: 8796403 enctime: 76.59
encoding rcpsp/j120.sm/j12016_4.sm nv: 1453935 nc: 2995018 enctime: 18.91
c File: j12016_4.smnaivebi5.wcnf
c timeout
c final solution cost: 427
c CPU time: 70.838120
s UNKNOWN

c File: j12016_4.smbi5.wcnf
c timeout
c CPU time: 62.205449
s UNKNOWN


rcpsp/heur_output_bi_constraints/Log=5/heurj120.txt
encoding rcpsp/j120.sm/j12016_5.sm nv: 4169004 nc: 8587356 enctime: 74.61
encoding rcpsp/j120.sm/j12016_5.sm nv: 1536960 nc: 3162978 enctime: 19.80
c File: j12016_5.smnaivebi5.wcnf
c timeout
c final solution cost: 494
c CPU time: 70.445353
s UNKNOWN

c File: j12016_5.smbi5.wcnf
c timeout
c CPU time: 62.347531
s UNKNOWN


rcpsp/heur_output_bi_constraints/Log=5/heurj120.txt
encoding rcpsp/j120.sm/j12016_6.sm nv: 4359180 nc: 8994555 enctime: 79.13
encoding rcpsp/j120.sm/j12016_6.sm nv: 1579320 nc: 3255573 enctime: 20.78
c File: j12016_6.smnaivebi5.wcnf
c timeout
c final solution cost: 324
c CPU time: 71.262400
s UNKNOWN

c File: j12016_6.smbi5.wcnf
c timeout
c CPU time: 62.422058
s UNKNOWN


rcpsp/heur_output_bi_constraints/Log=5/heurj120.txt
encoding rcpsp/j120.sm/j12016_7.sm nv: 4727744 nc: 9745417 enctime: 84.86
encoding rcpsp/j120.sm/j12016_7.sm nv: 1503040 nc: 3094937 enctime: 17.60
c File: j12016_7.smnaivebi5.wcnf
c timeout
c final solution cost: 641
c CPU time: 72.270907
s UNKNOWN

c File: j12016_7.smbi5.wcnf
c timeout
c CPU time: 62.233989
s UNKNOWN


rcpsp/heur_output_bi_constraints/Log=5/heurj120.txt
encoding rcpsp/j120.sm/j12016_8.sm nv: 3964479 nc: 8161363 enctime: 70.86
encoding rcpsp/j120.sm/j12016_8.sm nv: 1503120 nc: 3091663 enctime: 19.54
c File: j12016_8.smnaivebi5.wcnf
c timeout
c final solution cost: 224
c CPU time: 69.542508
s UNKNOWN

c File: j12016_8.smbi5.wcnf
c timeout
c final solution cost: 216
c CPU time: 62.712672
s UNKNOWN


rcpsp/heur_output_bi_constraints/Log=5/heurj120.txt
encoding rcpsp/j120.sm/j12016_9.sm nv: 4210080 nc: 8692163 enctime: 76.71
encoding rcpsp/j120.sm/j12016_9.sm nv: 1541190 nc: 3178871 enctime: 20.18
c File: j12016_9.smnaivebi5.wcnf
c timeout
c final solution cost: 268
c CPU time: 70.892772
s UNKNOWN

c File: j12016_9.smbi5.wcnf
c timeout
c CPU time: 62.387387
s UNKNOWN


rcpsp/heur_output_bi_constraints/Log=5/heurj120.txt
encoding rcpsp/j120.sm/j1201_6.sm nv: 581740 nc: 1377840 enctime: 22.30
encoding rcpsp/j120.sm/j1201_6.sm nv: 89726 nc: 209182 enctime: 1.64
c File: j1201_6.smnaivebi5.wcnf
c timeout
c final solution cost: 71
c CPU time: 64.627661
s UNKNOWN

c File: j1201_6.smbi5.wcnf
c timeout
c final solution cost: 71
c CPU time: 60.191531
s UNKNOWN


rcpsp/heur_output_bi_constraints/Log=5/heurj120.txt
encoding rcpsp/j120.sm/j12017_10.sm nv: 7118616 nc: 14505490 enctime: 114.66
encoding rcpsp/j120.sm/j12017_10.sm nv: 1547968 nc: 3150317 enctime: 18.02
c File: j12017_10.smnaivebi5.wcnf
c timeout
c final solution cost: 175
c CPU time: 74.606146
s UNKNOWN

c File: j12017_10.smbi5.wcnf
c timeout
c CPU time: 62.014362
s UNKNOWN


rcpsp/heur_output_bi_constraints/Log=5/heurj120.txt
encoding rcpsp/j120.sm/j12017_1.sm nv: 6915897 nc: 14114495 enctime: 108.83
encoding rcpsp/j120.sm/j12017_1.sm nv: 1614682 nc: 3291340 enctime: 18.23
c File: j12017_1.smnaivebi5.wcnf
c timeout
c final solution cost: 158
c CPU time: 74.446725
s UNKNOWN

c File: j12017_1.smbi5.wcnf
c timeout
c final solution cost: 154
c CPU time: 62.506199
s UNKNOWN


rcpsp/heur_output_bi_constraints/Log=5/heurj120.txt
encoding rcpsp/j120.sm/j12017_2.sm nv: 6672640 nc: 13549372 enctime: 100.62
encoding rcpsp/j120.sm/j12017_2.sm nv: 1543048 nc: 3129796 enctime: 17.11
c File: j12017_2.smnaivebi5.wcnf
c timeout
c final solution cost: 204
c CPU time: 73.072071
s UNKNOWN

c File: j12017_2.smbi5.wcnf
c timeout
c final solution cost: 134
c CPU time: 62.299422
s UNKNOWN


